
Gurobi 12.0.2 (win64) logging started Sun Jun  8 11:32:10 2025

Set parameter LogFile to value "C:\Ioana\_uni\honours\slp\algorithm\Main_files\results\others\prox_tubules_new_model\Task_002_Sample001_irr_gurobi.log"
Gurobi Optimizer version 12.0.2 build v12.0.2rc0 (win64 - Windows 11.0 (26100.2))

CPU model: Intel(R) Core(TM) Ultra 5 125H, instruction set [SSE2|AVX|AVX2]
Thread count: 14 physical cores, 18 logical processors, using up to 18 threads

Non-default parameters:
TimeLimit  2200

Optimize a model with 47226 rows, 34496 columns and 146683 nonzeros
Model fingerprint: 0x9b8b81ad
Variable types: 17251 continuous, 17245 integer (17245 binary)
Coefficient statistics:
  Matrix range     [1e-04, 8e+04]
  Objective range  [1e-04, 1e+01]
  Bounds range     [1e+00, 1e+03]
  RHS range        [1e+00, 1e+00]
Presolve removed 30823 rows and 21543 columns
Presolve time: 0.31s
Presolved: 16403 rows, 12953 columns, 54577 nonzeros
Variable types: 6410 continuous, 6543 integer (6543 binary)

Root relaxation: objective 1.780944e-03, 1718 iterations, 0.11 seconds (0.18 work units)

    Nodes    |    Current Node    |     Objective Bounds      |     Work
 Expl Unexpl |  Obj  Depth IntInf | Incumbent    BestBd   Gap | It/Node Time

     0     0    0.00178    0    4          -    0.00178      -     -    0s
H    0     0                       1.7809440    0.00178   100%     -    0s
     0     0    0.88224    0    3    1.78094    0.88224  50.5%     -    0s
     0     0    0.90463    0    1    1.78094    0.90463  49.2%     -    0s
     0     0    0.90727    0    5    1.78094    0.90727  49.1%     -    0s
     0     0    0.90727    0    5    1.78094    0.90727  49.1%     -    0s
     0     0 infeasible    0         1.78094    1.78094  0.00%     -    0s

Explored 1 nodes (3116 simplex iterations) in 0.92 seconds (1.06 work units)
Thread count was 18 (of 18 available processors)

Solution count 1: 1.78094 

Optimal solution found (tolerance 1.00e-04)
Best objective 1.780943968306e+00, best bound 1.780943968306e+00, gap 0.0000%
